15

35 8 50 
35 34 33 6 12 
35 33 6 6 
35 32 33 6 10 
35 32 4 47 0 23 
29 4 22 
29 27 3 31 1 6 
26 5 55 
22 2 64 
22 24 21 3 25 
22 21 3 22 
22 20 3 31 1 7 
10 7 32 
10 0 4 47 0 5 
10 0 2 3 31 1 1 
